c 114_3_checker_6cl.cnf
c
c field = 114
c formula set type = 3_checker_6cl
c
p cnf 6 64
220 
222 
224 
-219 
-216 
-228 
221 
223 
225 
-218 
-217 
-229 
220 
222 
224 
-229 
-218 
-230 
221 
223 
225 
-228 
-219 
-231 
222 
224 
228 
-221 
-218 
-230 
223 
225 
229 
-220 
-219 
-231 
222 
224 
228 
-231 
-220 
-232 
223 
225 
229 
-230 
-221 
-233 
224 
228 
230 
-223 
-220 
-232 
225 
229 
231 
-222 
-221 
-233 
224 
228 
230 
-233 
-222 
-234 
225 
229 
231 
-232 
-223 
-235 
228 
230 
232 
-225 
-222 
-234 
229 
231 
233 
-224 
-223 
-235 
228 
230 
232 
-235 
-224 
-236 
229 
231 
233 
-234 
-225 
-237 
136 
166 
196 
-107 
-76 
-256 
137 
167 
197 
-106 
-77 
-257 
136 
166 
196 
-257 
-106 
-286 
137 
167 
197 
-256 
-107 
-287 
166 
196 
256 
-137 
-106 
-286 
167 
197 
257 
-136 
-107 
-287 
166 
196 
256 
-287 
-136 
-316 
167 
197 
257 
-286 
-137 
-317 
196 
256 
286 
-167 
-136 
-316 
197 
257 
287 
-166 
-137 
-317 
196 
256 
286 
-317 
-166 
-346 
197 
257 
287 
-316 
-167 
-347 
256 
286 
316 
-197 
-166 
-346 
257 
287 
317 
-196 
-167 
-347 
256 
286 
316 
-347 
-196 
-376 
257 
287 
317 
-346 
-197 
-377 
130 
162 
194 
-99 
-66 
-258 
131 
163 
195 
-98 
-67 
-259 
130 
162 
194 
-259 
-98 
-290 
131 
163 
195 
-258 
-99 
-291 
162 
194 
258 
-131 
-98 
-290 
163 
195 
259 
-130 
-99 
-291 
162 
194 
258 
-291 
-130 
-322 
163 
195 
259 
-290 
-131 
-323 
194 
258 
290 
-163 
-130 
-322 
195 
259 
291 
-162 
-131 
-323 
194 
258 
290 
-323 
-162 
-354 
195 
259 
291 
-322 
-163 
-355 
258 
290 
322 
-195 
-162 
-354 
259 
291 
323 
-194 
-163 
-355 
258 
290 
322 
-355 
-194 
-386 
259 
291 
323 
-354 
-195 
-387 
142 
170 
198 
-115 
-86 
-254 
143 
171 
199 
-114 
-87 
-255 
142 
170 
198 
-255 
-114 
-282 
143 
171 
199 
-254 
-115 
-283 
170 
198 
254 
-143 
-114 
-282 
171 
199 
255 
-142 
-115 
-283 
170 
198 
254 
-283 
-142 
-310 
171 
199 
255 
-282 
-143 
-311 
198 
254 
282 
-171 
-142 
-310 
199 
255 
283 
-170 
-143 
-311 
198 
254 
282 
-311 
-170 
-338 
199 
255 
283 
-310 
-171 
-339 
254 
282 
310 
-199 
-170 
-338 
255 
283 
311 
-198 
-171 
-339 
254 
282 
310 
-339 
-198 
-366 
255 
283 
311 
-338 
-199 
-367 
